l=3411;
a=5;
setup_costs=[|11,11,11,11,11,
|11,11,11,11,11,
|11,11,11,11,11,
|11,11,11,11,11,
|11,11,11,11,11,
|0,0,0,0,0|];
setup_times=[|0,0,0,0,0,
|0,0,0,0,0,
|0,0,0,0,0,
|0,0,0,0,0,
|0,0,0,0,0,
|0,0,0,0,0|];
m=2;
min_cap=[0,0];
max_cap=[10,7];

initState=[3,1];
s=5;
m_a_s = [|0,0,0,0,5,
|455,1600,1837,2560,2728|];
m_a_e = [|0,0,0,0,3121,
|1527,1811,2521,2698,3326|];
n=50;
eligible_machine = [{1},
{2},
{2},
{2},
{2},
{2},
{1,2},
{2},
{2},
{2},
{1,2},
{2},
{1},
{2},
{1},
{1},
{1},
{1},
{2},
{1},
{2,1},
{1,2},
{2},
{2},
{1},
{2,1},
{1,2},
{1},
{1,2},
{2},
{2},
{1},
{1},
{1},
{1,2},
{1},
{2,1},
{2},
{1},
{1},
{2},
{2},
{2},
{1,2},
{1},
{2},
{2},
{2},
{1},
{1}];
earliest_start=[168,40,60,151,230,0,88,116,233,218,207,136,196,188,50,182,161,16,227,165,201,65,21,133,64,29,74,184,18,48,57,52,79,7,90,170,236,108,233,171,133,8,149,173,123,195,67,13,161,43];
latest_end=[205,51,193,275,266,93,136,297,350,262,210,245,199,390,265,361,357,358,678,276,300,92,325,138,98,134,292,486,272,72,190,108,119,206,273,425,345,247,373,250,293,20,325,538,373,228,114,140,207,323];
min_time=[16,3,51,30,26,38,35,55,87,10,1,76,1,67,62,37,87,73,94,66,23,16,66,2,33,35,51,78,73,8,88,24,9,94,72,93,53,60,64,38,39,11,85,89,95,13,10,29,45,70];
max_time=[100,100,100,100,100,100,100,100,100,100,100,100,100,100,100,100,100,100,100,100,100,100,100,100,100,100,100,100,100,100,100,100,100,100,100,100,100,100,100,100,100,100,100,100,100,100,100,100,100,100];
size=[4,2,4,3,2,1,5,1,1,1,1,4,5,1,3,2,1,3,1,1,3,2,3,1,3,2,4,1,3,2,3,3,2,4,1,1,1,5,5,3,3,2,3,5,5,2,4,5,3,1];
attribute=[5,5,4,3,1,3,4,5,1,5,3,1,5,3,5,1,5,3,1,3,1,5,5,4,1,5,4,5,3,1,4,1,1,5,1,5,3,5,4,2,1,2,5,3,5,1,4,3,5,4];

upper_bound_integer_objective=66936581;
mult_factor_total_runtime=28101;
mult_factor_finished_toolate=551;
mult_factor_total_setuptimes=0;
mult_factor_total_setupcosts=1;
running_time_bound=2381;
min_duration=1;
max_duration=95;
max_setup_time=0;
max_setup_cost=11;
